(set-logic HORN)

(declare-fun inv-f
             (Int
              Int
              Int
              Int
              Int
              Int
              Int
              Int
              Int
              Int
              Int
              Int
              Int
              Int
              Int
              Int
              Int
              Int
              Int
              Int)
             Bool)
(assert (forall ((A Int)
         (B Int)
         (C Int)
         (D Int)
         (E Int)
         (F Int)
         (G Int)
         (H Int)
         (I Int)
         (J Int)
         (K Int)
         (L Int)
         (M Int)
         (N Int)
         (O Int)
         (P Int)
         (Q Int)
         (R Int)
         (S Int)
         (T Int))
  (let ((a!1 (and (inv-f T S R Q P O N M L K J I H G F E D C B A)
                     (= (- T N) 0)
                     (= (- S H) 0)
                     (< (- (+ (- 1) E) B) 0)
                     (= (- R E) 0)
                     (>= (+ (- 1) E) 0)
                     (= (- Q B) 0)
                     (< (+ (- (- 1) H) E) 0))))
       (=> a!1 false))
    ))
(assert (forall ((A Int)
         (B Int)
         (C Int)
         (D Int)
         (E Int)
         (F Int)
         (G Int)
         (H Int)
         (I Int)
         (J Int)
         (K Int)
         (L Int)
         (M Int)
         (N Int)
         (O Int)
         (P Int)
         (Q Int)
         (R Int)
         (S Int)
         (T Int))
  (=> (and (= (- T O) 0)
              (= (- S I) 0)
              (= (- Q C) 0)
              (= (+ (- 2) O) 0)
              (= C 0)
              (= I 0))
         (inv-f T S R Q P O N M L K J I H G F E D C B A))
    ))
(assert (forall ((A Int)
         (B Int)
         (C Int)
         (D Int)
         (E Int)
         (F Int)
         (G Int)
         (H Int)
         (I Int)
         (J Int)
         (K Int)
         (L Int)
         (M Int)
         (N Int)
         (O Int)
         (P Int)
         (Q Int)
         (R Int)
         (S Int)
         (T Int)
         (U Int)
         (V Int)
         (W Int)
         (X Int)
         (Y Int)
         (Z Int)
         (A1 Int)
         (B1 Int)
         (C1 Int)
         (D1 Int)
         (E1 Int)
         (F1 Int)
         (G1 Int)
         (H1 Int)
         (I1 Int)
         (J1 Int)
         (K1 Int)
         (L1 Int)
         (M1 Int)
         (N1 Int))
  (let ((a!1 (and (= (- U A1) 0) (= (- N Z) 0) (= (- H X) 0))))
     (let ((a!2 (and a!1 (>= (- (+ (- 1) K) H) 0))))
     (let ((a!3 (and a!2
                     (= (- M H) 0)
                     (= (+ (- 161) U T) 0)
                     (= (- S T) 0)
                     (= (- L M) 0)
                     (= (+ (- (- 1) H) F) 0)
                     (= (+ (- (- 483) S) Q) 0)
                     (= (- Q N1) 0)
                     (= (- L C1) 0)
                     (= (- F G) 0)
                     (= (- Y K) 0)
                     (= (- R K) 0)
                     (= (- W E) 0)))
           (a!4 (and a!2
                     (= (- S U) 0)
                     (= (- L N) 0)
                     (= (+ (- (- 1) H) F) 0)
                     (= (+ (- (- 483) S) Q) 0)
                     (= (- Q N1) 0)
                     (= (- L C1) 0)
                     (= (- F G) 0)
                     (= (- Y K) 0)
                     (= (- R K) 0)
                     (= (- W E) 0))))
     (let ((a!5 (or (and a!1
                         (= (- U N1) 0)
                         (= (- N C1) 0)
                         (= (- H G) 0)
                         (= (- Y K) 0)
                         (= (- R K) 0)
                         (= (- A1 N1) 0)
                         (= (- Z C1) 0)
                         (= (- W E) 0))
                    a!3
                    a!4)))
       (=> (and (inv-f A1 Z Y X W V U T S Q P O N M L K J I H F) a!5)
           (inv-f N1 C1 R G E D C B A M1 L1 K1 J1 I1 H1 G1 F1 E1 D1 B1))))))
    ))


(check-sat)
(exit)
